c generated by sgen3tocnf
c nLits = 612
c actual nVars = 97
c Command: sgen3tocnf 024 0 18 23 97 4 2 0 /dev/null
p cnf 97 204
-5 -57 -61 0
-5 -57 -93 0
-5 -61 -93 0
-57 -61 -93 0
-1 -37 -49 0
-1 -37 -81 0
-1 -49 -81 0
-37 -49 -81 0
-6 -38 -53 0
-6 -38 -65 0
-6 -53 -65 0
-38 -53 -65 0
-13 -73 -77 0
-13 -73 -89 0
-13 -77 -89 0
-73 -77 -89 0
-2 -29 -85 0
-2 -29 -90 0
-2 -85 -90 0
-29 -85 -90 0
-21 -69 -82 0
-21 -69 -86 0
-21 -82 -86 0
-69 -82 -86 0
-14 -41 -50 0
-14 -41 -94 0
-14 -50 -94 0
-41 -50 -94 0
-42 -54 -62 0
-42 -54 -91 0
-42 -62 -91 0
-54 -62 -91 0
-9 -39 -70 0
-9 -39 -95 0
-9 -70 -95 0
-39 -70 -95 0
-10 -17 -45 0
-10 -17 -66 0
-10 -45 -66 0
-17 -45 -66 0
-43 -67 -74 0
-43 -67 -87 0
-43 -74 -87 0
-67 -74 -87 0
-40 -46 -58 0
-40 -46 -78 0
-40 -58 -78 0
-46 -58 -78 0
-7 -33 -47 0
-7 -33 -83 0
-7 -47 -83 0
-33 -47 -83 0
-11 -25 -55 0
-11 -25 -75 0
-11 -55 -75 0
-25 -55 -75 0
-26 -30 -51 0
-26 -30 -59 0
-26 -51 -59 0
-30 -51 -59 0
-3 -18 -22 0
-3 -18 -96 0
-3 -22 -96 0
-18 -22 -96 0
-15 -19 -60 0
-15 -19 -88 0
-15 -60 -88 0
-19 -60 -88 0
-4 -48 -63 0
-4 -48 -71 0
-4 -63 -71 0
-48 -63 -71 0
-16 -31 -56 0
-16 -31 -84 0
-16 -56 -84 0
-31 -56 -84 0
-12 -34 -52 0
-12 -34 -79 0
-12 -52 -79 0
-34 -52 -79 0
-23 -32 -35 0
-23 -32 -64 0
-23 -35 -64 0
-32 -35 -64 0
-24 -27 -68 0
-24 -27 -92 0
-24 -68 -92 0
-27 -68 -92 0
-8 -28 -44 0
-8 -28 -80 0
-8 -28 -97 0
-8 -44 -80 0
-8 -44 -97 0
-8 -80 -97 0
-28 -44 -80 0
-28 -44 -97 0
-28 -80 -97 0
-44 -80 -97 0
-20 -36 -72 0
-20 -36 -76 0
-20 -72 -76 0
-36 -72 -76 0
1 2 3 0
1 2 4 0
1 3 4 0
2 3 4 0
5 6 7 0
5 6 8 0
5 7 8 0
6 7 8 0
9 10 11 0
9 10 12 0
9 11 12 0
10 11 12 0
13 14 15 0
13 14 16 0
13 15 16 0
14 15 16 0
17 18 19 0
17 18 20 0
17 19 20 0
18 19 20 0
21 22 23 0
21 22 24 0
21 23 24 0
22 23 24 0
25 26 27 0
25 26 28 0
25 27 28 0
26 27 28 0
29 30 31 0
29 30 32 0
29 31 32 0
30 31 32 0
33 34 35 0
33 34 36 0
33 35 36 0
34 35 36 0
37 38 39 0
37 38 40 0
37 39 40 0
38 39 40 0
41 42 43 0
41 42 44 0
41 43 44 0
42 43 44 0
45 46 47 0
45 46 48 0
45 47 48 0
46 47 48 0
49 50 51 0
49 50 52 0
49 51 52 0
50 51 52 0
53 54 55 0
53 54 56 0
53 55 56 0
54 55 56 0
57 58 59 0
57 58 60 0
57 59 60 0
58 59 60 0
61 62 63 0
61 62 64 0
61 63 64 0
62 63 64 0
65 66 67 0
65 66 68 0
65 67 68 0
66 67 68 0
69 70 71 0
69 70 72 0
69 70 97 0
69 71 72 0
69 71 97 0
69 72 97 0
70 71 72 0
70 71 97 0
70 72 97 0
71 72 97 0
73 74 75 0
73 74 76 0
73 75 76 0
74 75 76 0
77 78 79 0
77 78 80 0
77 79 80 0
78 79 80 0
81 82 83 0
81 82 84 0
81 83 84 0
82 83 84 0
85 86 87 0
85 86 88 0
85 87 88 0
86 87 88 0
89 90 91 0
89 90 92 0
89 91 92 0
90 91 92 0
93 94 95 0
93 94 96 0
93 95 96 0
94 95 96 0
